0 0 0 0
0 1 0 0
0 2 0 0
0 3 0 0
0 4 0 4
0 5 0 10
0 6 0 4
0 7 0 10
0 8 0 4
0 9 0 4
0 10 0 7
0 11 0 4
0 12 0 12
0 13 0 12
0 14 0 11
0 15 0 7
0 16 2 15
0 17 0 21
0 18 0 27
0 19 0 32
0 20 0 20
0 21 2 7
0 22 0 21
0 23 0 21
0 24 0 13
0 25 0 25
0 26 0 18
0 27 1 25
0 28 0 33
0 29 0 36
0 30 0 36
0 31 0 40
